
c turning on binary mode checking

c parsing input formula with 9246 variables and 32598 clauses

c finished parsing, read 3390 bytes from proof file

c detected empty clause; start verification via backward checking

c 3087 of 32598 clauses in core                            

c 35 of 685 lemmas in core using 43430 resolution steps

c 0 RAT lemmas in core; 2 redundant literals in core lemmas

s VERIFIED

c verification time: 0.063 seconds
